33D32945 STP File, STP Format Version 1.0

SECTION Comments
Name "cube_n10_d3_s39"
Problem "Euclidean Steiner Tree Problem"
Remark "Generated with STPGenerator. 3 dimensions."
END

SECTION Graph
Nodes 10
END

SECTION Coordinates
DDD 0 0.9571484462 0.5881108905 0.2816415891
DDD 1 0.9608924622 0.4010537497 0.5862380008
DDD 2 0.0521304696 0.9748592134 0.3832746434
DDD 3 0.7694257664 0.3322590768 0.7771537661
DDD 4 0.6123015828 0.9753510230 0.6286001725
DDD 5 0.3799427857 0.0309723057 0.7538297781
DDD 6 0.4828030474 0.7509467996 0.2591224784
DDD 7 0.3035272250 0.3381346959 0.3982325915
DDD 8 0.3818814775 0.1083943300 0.5903588718
DDD 9 0.0385252712 0.5084510411 0.1311056945
END
